letting initialStacks = [9, 32, 10, 15, 5, 13, 36, 25, 33, 1, 8, 14, 34, 27, 6, 29, 11, 2, 24, 28, 50, 41, 31, 43, 30, 47, 37, 48, 12, 4, 19, 46, 7, 17, 26, 39, 35, 23, 18, 38, 49, 40, 22, 44, 20, 21, 42, 3, 51, 16, 45]
